PROBLEM NAME: eil51_n15
KNAPSACK DATA TYPE: uncorrelated
DIMENSION: 15
NUMBER OF ITEMS: 70
CAPACITY OF KNAPSACK: 17274
MIN SPEED: 0.1
MAX SPEED: 1
RENTING RATIO: 25.98
EDGE_WEIGHT_TYPE: CEIL_2D
NODE_COORD_SECTION	(INDEX, X, Y):
1	49	49
2	52	64
3	52	41
4	62	42
5	42	57
6	7	38
7	27	68
8	43	67
9	58	27
10	38	46
11	62	63
12	5	6
13	32	39
14	25	55
15	48	28
ITEMS SECTION	(INDEX, PROFIT, WEIGHT, ASSIGNED NODE NUMBER):
1	979	192	5
2	965	77	5
3	928	539	5
4	921	694	5
5	915	880	5
6	861	131	10
7	848	454	10
8	814	834	10
9	813	354	10
10	792	68	10
11	790	280	13
12	789	762	13
13	787	714	13
14	786	810	13
15	773	586	13
16	753	519	12
17	752	4	12
18	748	144	12
19	714	698	12
20	710	872	12
21	682	337	6
22	652	486	6
23	647	883	6
24	623	691	6
25	605	134	6
26	585	101	14
27	575	685	14
28	568	646	14
29	560	764	14
30	559	50	14
31	545	431	7
32	542	387	7
33	537	24	7
34	526	794	7
35	516	425	7
36	488	354	8
37	477	851	8
38	425	290	8
39	393	17	8
40	386	893	8
41	376	758	2
42	374	13	2
43	373	110	2
44	364	139	2
45	363	546	2
46	363	773	11
47	355	415	11
48	353	938	11
49	320	374	11
50	314	313	11
51	313	593	4
52	300	421	4
53	292	800	4
54	264	58	4
55	245	675	4
56	242	954	9
57	234	355	9
58	229	211	9
59	225	696	9
60	217	532	9
61	180	81	15
62	155	432	15
63	112	139	15
64	111	936	15
65	106	29	15
66	83	194	3
67	70	246	3
68	50	498	3
69	49	227	3
70	26	359	3
